# Solution for model micodag
# Objective value = 7.4705719391782921e+00
s_0_1 0
s_1_0 0
s_0_2 0
s_2_0 0
s_1_2 9.1367361464659647e-01
s_2_1 0
s_2_3 0
s_3_2 0
s_2_5 0
s_5_2 7.6541080462804745e-01
s_3_4 0
s_4_3 0
s_3_5 0
s_5_3 5.5933024062931436e-01
s_3_6 0
s_6_3 7.4947339399413782e-01
s_4_5 0
s_5_4 0
s_4_6 0
s_6_4 6.7512885097956454e-01
s_4_7 0
s_7_4 3.8099616077322729e-01
s_5_6 0
s_6_5 0
s_5_7 0
s_7_5 0.624615364071182
s_5_8 0
s_8_5 4.3110831672333072e-01
s_6_7 0
s_7_6 0
s_6_8 0
s_8_6 6.3211497042862019e-01
s_7_8 0
s_8_7 3.3659613119953358e-01
s_0_0 2.1818600783836288e+00
s_1_1 1.7899181503240225e+00
s_2_2 1.1648474273414564e+00
s_3_3 1.0952541676284446e+00
s_4_4 6.9140560360804981e-01
s_5_5 1.9916892633886589e+00
s_6_6 1.0120951631256445e+00
s_7_7 1.0479856706766904e+00
s_8_8 1.0652431043348245e+00
Gamma_0_0 1.4771120737383567e+00
Gamma_0_1 0
Gamma_0_2 0
Gamma_0_3 0
Gamma_0_4 0
Gamma_0_5 0
Gamma_0_6 0
Gamma_0_7 0
Gamma_0_8 0
Gamma_1_0 0
Gamma_1_1 1.3378782270162044e+00
Gamma_1_2 9.5586275931568587e-01
Gamma_1_3 0
Gamma_1_4 0
Gamma_1_5 0
Gamma_1_6 0
Gamma_1_7 0
Gamma_1_8 0
Gamma_2_0 0
Gamma_2_1 0
Gamma_2_2 1.0792809770126852e+00
Gamma_2_3 0
Gamma_2_4 0
Gamma_2_5 0
Gamma_2_6 0
Gamma_2_7 0
Gamma_2_8 0
Gamma_3_0 0
Gamma_3_1 0
Gamma_3_2 0
Gamma_3_3 1.0465439157667702e+00
Gamma_3_4 0
Gamma_3_5 0
Gamma_3_6 0
Gamma_3_7 0
Gamma_3_8 0
Gamma_4_0 0
Gamma_4_1 0
Gamma_4_2 0
Gamma_4_3 0
Gamma_4_4 0.831508029791685
Gamma_4_5 0
Gamma_4_6 0
Gamma_4_7 0
Gamma_4_8 0
Gamma_5_0 0
Gamma_5_1 0
Gamma_5_2 -8.7487759408276522e-01
Gamma_5_3 -7.4788384166882138e-01
Gamma_5_4 0
Gamma_5_5 1.4112722144889904e+00
Gamma_5_6 0
Gamma_5_7 0
Gamma_5_8 0
Gamma_6_0 0
Gamma_6_1 0
Gamma_6_2 0
Gamma_6_3 -8.6572131427737087e-01
Gamma_6_4 8.2166224872484261e-01
Gamma_6_5 0
Gamma_6_6 1.0060294047022904e+00
Gamma_6_7 0
Gamma_6_8 0
Gamma_7_0 0
Gamma_7_1 0
Gamma_7_2 0
Gamma_7_3 0
Gamma_7_4 6.1724886453781935e-01
Gamma_7_5 7.9032611248217188e-01
Gamma_7_6 0
Gamma_7_7 1.0237117126792534e+00
Gamma_7_8 0
Gamma_8_0 0
Gamma_8_1 0
Gamma_8_2 0
Gamma_8_3 0
Gamma_8_4 0
Gamma_8_5 -6.5658839216310472e-01
Gamma_8_6 7.9505658316161421e-01
Gamma_8_7 5.8016905398300445e-01
Gamma_8_8 1.0321061497417912e+00
psi_0 0
psi_1 0
psi_2 3
psi_3 3
psi_4 2
psi_5 2
psi_6 1
psi_7 1
psi_8 0
g_0_0 0
g_0_1 0
g_0_2 0
g_0_3 0
g_0_4 0
g_0_5 0
g_0_6 0
g_0_7 0
g_0_8 0
g_1_0 0
g_1_1 0
g_1_2 1
g_1_3 0
g_1_4 0
g_1_5 0
g_1_6 0
g_1_7 0
g_1_8 0
g_2_0 0
g_2_1 0
g_2_2 0
g_2_3 0
g_2_4 0
g_2_5 0
g_2_6 0
g_2_7 0
g_2_8 0
g_3_0 0
g_3_1 0
g_3_2 0
g_3_3 0
g_3_4 0
g_3_5 0
g_3_6 0
g_3_7 0
g_3_8 0
g_4_0 0
g_4_1 0
g_4_2 0
g_4_3 0
g_4_4 0
g_4_5 0
g_4_6 0
g_4_7 0
g_4_8 0
g_5_0 0
g_5_1 0
g_5_2 1
g_5_3 1
g_5_4 0
g_5_5 0
g_5_6 0
g_5_7 0
g_5_8 0
g_6_0 0
g_6_1 0
g_6_2 0
g_6_3 1
g_6_4 1
g_6_5 0
g_6_6 0
g_6_7 0
g_6_8 0
g_7_0 0
g_7_1 0
g_7_2 0
g_7_3 0
g_7_4 1
g_7_5 1
g_7_6 0
g_7_7 0
g_7_8 0
g_8_0 0
g_8_1 0
g_8_2 0
g_8_3 0
g_8_4 0
g_8_5 1
g_8_6 1
g_8_7 1
g_8_8 0
T_0 -7.8017775995770933e-01
T_1 -5.8216989273122977e-01
T_2 -1.5259011478576667e-01
T_3 -0.0909864528892399
T_4 3.6902864680074288e-01
T_5 -6.8898315471957972e-01
T_6 -1.2022601153418577e-02
T_7 -4.6869912786945633e-02
T_8 -6.3203040093497975e-02
